Version identifier: 22.1.1.0 | 2022-11-28 | 9160aff4d
CPXPARAM_ClockType                               1
CPXPARAM_Read_DataCheck                          1
CPXPARAM_Threads                                 1
CPXPARAM_TimeLimit                               7200
CPXPARAM_MIP_Tolerances_AbsMIPGap                0
CPXPARAM_MIP_Tolerances_MIPGap                   0
CPXPARAM_MIP_Tolerances_Integrality              0
Tried aggregator 6 times.
MIP Presolve eliminated 31646 rows and 6958 columns.
MIP Presolve modified 5175 coefficients.
Aggregator did 6201 substitutions.
Reduced MIP has 523804 rows, 229541 columns, and 1758978 nonzeros.
Reduced MIP has 229541 binaries, 0 generals, 0 SOSs, and 0 indicators.
Presolve time = 6.63 sec. (3238.96 ticks)
Probing fixed 24 vars, tightened 0 bounds.
Probing time = 14.79 sec. (1955.70 ticks)
Tried aggregator 1 time.
Detecting symmetries...
MIP Presolve eliminated 1190 rows and 414 columns.
MIP Presolve modified 32 coefficients.
Reduced MIP has 522614 rows, 229127 columns, and 1756550 nonzeros.
Reduced MIP has 229127 binaries, 0 generals, 0 SOSs, and 0 indicators.
Presolve time = 5.51 sec. (2535.61 ticks)
Probing time = 0.29 sec. (50.58 ticks)
Clique table members: 1002687.
MIP emphasis: balance optimality and feasibility.
MIP search method: dynamic search.
Parallel mode: none, using 1 thread.
Root relaxation solution time = 7507.45 sec. (775114.06 ticks)

        Nodes                                         Cuts/
   Node  Left     Objective  IInf  Best Integer    Best Bound    ItCnt     Gap

      0     0   1.00000e+37     0                1285350.0000   431516         

Root node processing (before b&c):
  Real time             = 7542.54 sec. (786412.59 ticks)
Sequential b&c:
  Real time             =    0.00 sec. (0.00 ticks)
                          ------------
Total (root+branch&cut) = 7542.54 sec. (786412.59 ticks)
Solution is infeasible.

---------------------
@@@ MIP_time_limit_infeasible
Traceback (most recent call last):
  File "/scratch/scherif/DiverseSAT-journal_sup/DiverseSAT_Supplementary_Experiments/experiment-1/cplex/jobs/../solvers/CPLEX-DW-SE.py", line 104, in <module>
    print(f">>> Benchmark {os.path.basename(cnf_file)} k {k} OPT {int(prob.solution.get_objective_value())}"
  File "/users/scherif/.local/lib/python3.9/site-packages/cplex/_internal/_subinterfaces.py", line 7211, in get_objective_value
    return CPX_PROC.getobjval(self._env._e, self._cplex._lp)
  File "/users/scherif/.local/lib/python3.9/site-packages/cplex/_internal/_procedural.py", line 2055, in getobjval
    check_status(env, status)
  File "/users/scherif/.local/lib/python3.9/site-packages/cplex/_internal/_procedural.py", line 249, in __call__
    raise CplexSolverError(error_string, env, status)
cplex.exceptions.errors.CplexSolverError: CPLEX Error  1217: No solution exists.
